W=7;
H=5;

MAX_TIME=16;
MAX_TRACKS=7;

TARGET=(3,7);

TRAINS=[(3,4,TOP),(3,3,DOWN)];
DECOYS=[];

INIT_POS=[
(2,2,STRAIGHT_TD),
(2,5,SWITCH_D_T_L),
(3,2,STRAIGHT_TD),
(3,3,STRAIGHT_TD),
(3,4,STRAIGHT_TD),
(3,5,STRAIGHT_TD),
(3,7,STRAIGHT_RL),
(4,2,STRAIGHT_TD),
(4,5,SWITCH_T_D_R),
];
TUNNEL_PAIRS=[
  (1, 5, DOWN, 5, 1, RIGHT),
  (1, 1, RIGHT, 5, 5, TOP),
];

GATES=[];
ACTIVATIONS=[];

DSWITCHES=[];

STATIONS=[];
